(set-info :smt-lib-version 2.6)
(set-logic QF_UFLRA)
(set-info :source |
MathSat group

|)
(set-info :category "random")
(set-info :status sat)
(declare-fun x0 () Real)
(declare-fun x1 () Real)
(declare-fun x2 () Real)
(declare-fun x3 () Real)
(declare-fun x4 () Real)
(declare-fun x5 () Real)
(declare-fun x6 () Real)
(declare-fun x7 () Real)
(declare-fun x8 () Real)
(declare-fun x9 () Real)
(declare-fun x10 () Real)
(declare-fun x11 () Real)
(declare-fun x12 () Real)
(declare-fun x13 () Real)
(declare-fun x14 () Real)
(declare-fun x15 () Real)
(declare-fun x16 () Real)
(declare-fun x17 () Real)
(declare-fun x18 () Real)
(declare-fun x19 () Real)
(declare-fun x20 () Real)
(declare-fun x21 () Real)
(declare-fun x22 () Real)
(declare-fun x23 () Real)
(declare-fun x24 () Real)
(declare-fun x25 () Real)
(declare-fun x26 () Real)
(declare-fun x27 () Real)
(declare-fun x28 () Real)
(declare-fun x29 () Real)
(declare-fun x30 () Real)
(declare-fun x31 () Real)
(declare-fun x32 () Real)
(declare-fun x33 () Real)
(declare-fun x34 () Real)
(declare-fun x35 () Real)
(declare-fun x36 () Real)
(declare-fun x37 () Real)
(declare-fun x38 () Real)
(declare-fun x39 () Real)
(declare-fun x40 () Real)
(declare-fun x41 () Real)
(declare-fun x42 () Real)
(declare-fun x43 () Real)
(declare-fun x44 () Real)
(declare-fun x45 () Real)
(declare-fun x46 () Real)
(declare-fun x47 () Real)
(declare-fun x48 () Real)
(declare-fun x49 () Real)
(declare-fun f0_1 (Real) Real)
(declare-fun f0_2 (Real Real) Real)
(declare-fun f0_3 (Real Real Real) Real)
(declare-fun f0_4 (Real Real Real Real) Real)
(declare-fun P0 () Bool)
(declare-fun P1 () Bool)
(declare-fun P2 () Bool)
(declare-fun P3 () Bool)
(declare-fun P4 () Bool)
(declare-fun P5 () Bool)
(declare-fun P6 () Bool)
(declare-fun P7 () Bool)
(declare-fun P8 () Bool)
(declare-fun P9 () Bool)
(declare-fun P10 () Bool)
(declare-fun P11 () Bool)
(declare-fun P12 () Bool)
(declare-fun P13 () Bool)
(declare-fun P14 () Bool)
(declare-fun P15 () Bool)
(declare-fun P16 () Bool)
(declare-fun P17 () Bool)
(declare-fun P18 () Bool)
(declare-fun P19 () Bool)
(declare-fun P20 () Bool)
(declare-fun P21 () Bool)
(declare-fun P22 () Bool)
(declare-fun P23 () Bool)
(declare-fun P24 () Bool)
(declare-fun P25 () Bool)
(declare-fun P26 () Bool)
(declare-fun P27 () Bool)
(declare-fun P28 () Bool)
(declare-fun P29 () Bool)
(declare-fun P30 () Bool)
(declare-fun P31 () Bool)
(declare-fun P32 () Bool)
(declare-fun P33 () Bool)
(declare-fun P34 () Bool)
(declare-fun P35 () Bool)
(declare-fun P36 () Bool)
(declare-fun P37 () Bool)
(declare-fun P38 () Bool)
(declare-fun P39 () Bool)
(declare-fun P40 () Bool)
(declare-fun P41 () Bool)
(declare-fun P42 () Bool)
(declare-fun P43 () Bool)
(declare-fun P44 () Bool)
(declare-fun P45 () Bool)
(declare-fun P46 () Bool)
(declare-fun P47 () Bool)
(declare-fun P48 () Bool)
(declare-fun P49 () Bool)
(assert (let ((?v_81 (* 15 x36)) (?v_131 (* 24 x24)) (?v_2 (distinct (- (+ (* 24 x30) (* 23 x43)) (* 2 x41)) 17)) (?v_31 (* 2 x46)) (?v_16 (* 25 x34))) (let ((?v_159 (< (+ (- ?v_81 ?v_16) (* 26 x46)) 27)) (?v_69 (* 25 x46)) (?v_49 (<= (- (- (* 3 x48) (* 26 x30)) (* 4 x17)) 3)) (?v_169 (<= (- (- (* 8 x9) (* 7 x40)) (* 20 x10)) 27)) (?v_13 (* 16 x44)) (?v_113 (< (+ (- (* 8 x37) (* 25 x14)) (* 16 x31)) 21))) (let ((?v_24 (<= (+ (- (* 2 x0) (* 20 x12)) ?v_13) 17)) (?v_22 (f0_1 x17)) (?v_58 (f0_1 x15))) (let ((?v_42 (= ?v_22 ?v_58)) (?v_144 (= (f0_2 x38 x35) x2)) (?v_62 (f0_1 x5))) (let ((?v_129 (= x21 ?v_62)) (?v_202 (f0_1 x20))) (let ((?v_225 (distinct x49 ?v_202)) (?v_1 (distinct (f0_2 x1 x25) (f0_2 x6 x10))) (?v_82 (distinct (f0_2 x18 x46) x33)) (?v_92 (distinct (f0_2 x44 x42) (f0_1 x13))) (?v_10 (f0_1 x25))) (let ((?v_100 (distinct ?v_10 x34)) (?v_59 (distinct x35 (f0_2 x12 x15))) (?v_177 (distinct (f0_2 x18 x29) (f0_1 x28))) (?v_73 (= (f0_1 x23) x35)) (?v_98 (= x49 (f0_2 x4 x39))) (?v_123 (= x38 (f0_2 x39 x14))) (?v_0 (= x11 (f0_2 x38 x39))) (?v_33 (distinct (f0_1 x31) ?v_202)) (?v_101 (= (f0_2 x40 x32) x28)) (?v_207 (= (f0_2 x36 x16) (f0_2 x21 x2))) (?v_172 (distinct (f0_2 x16 x43) (f0_1 x34))) (?v_195 (= (f0_2 x33 x44) x22)) (?v_117 (= (f0_2 x38 x32) (f0_2 x17 x26))) (?v_137 (= (f0_1 x39) (f0_2 x3 x10))) (?v_133 (distinct x12 (f0_2 x46 x4))) (?v_198 (= x17 (f0_2 x48 x43))) (?v_97 (= (f0_1 x40) x49)) (?v_48 (f0_1 x41))) (let ((?v_104 (= (f0_2 x24 x44) ?v_48)) (?v_36 (distinct (f0_2 x1 x36) (f0_2 x27 x0))) (?v_145 (= ?v_58 (f0_2 x42 x38))) (?v_28 (f0_1 x3))) (let ((?v_57 (distinct ?v_28 (f0_1 x35))) (?v_51 (= ?v_22 (f0_2 x17 x5))) (?v_105 (= x5 x12)) (?v_74 (= (f0_2 x27 x46) (f0_2 x29 x14))) (?v_43 (f0_1 x32))) (let ((?v_125 (distinct ?v_43 x28)) (?v_161 (distinct (f0_2 x28 x24) (f0_2 x35 x22))) (?v_108 (f0_1 x44))) (let ((?v_130 (= (f0_2 x29 x28) ?v_108)) (?v_168 (= (f0_2 x2 x19) x13)) (?v_190 (= (f0_2 x31 x18) (f0_2 x42 x0))) (?v_75 (= (f0_2 x2 x4) (f0_2 x38 x34))) (?v_52 (f0_1 x22))) (let ((?v_120 (distinct ?v_52 (f0_2 x37 x6))) (?v_23 (= (f0_1 x2) (f0_2 x44 x18))) (?v_79 (= ?v_52 (f0_2 x14 x5))) (?v_180 (= (f0_1 x6) (f0_2 x49 x12))) (?v_112 (= x41 ?v_62)) (?v_109 (distinct (f0_1 x9) (f0_2 x48 x1))) (?v_32 (distinct (f0_2 x16 x47) ?v_43)) (?v_18 (= ?v_10 (f0_2 x40 x13))) (?v_194 (distinct x20 ?v_28)) (?v_165 (= (f0_1 x38) x10)) (?v_152 (= ?v_48 x42)) (?v_210 (distinct x14 (f0_2 x44 x41))) (?v_61 (= x19 ?v_108)) (?v_46 (not ?v_2)) (?v_141 (not ?v_177)) (?v_136 (not P14)) (?v_212 (not P47))) (let ((?v_208 (or ?v_212 ?v_0)) (?v_228 (not ?v_23)) (?v_35 (not ?v_1)) (?v_7 (not ?v_98)) (?v_44 (not ?v_36)) (?v_5 (not P39)) (?v_17 (not ?v_159)) (?v_63 (not P32)) (?v_71 (not P31)) (?v_26 (not ?v_133)) (?v_41 (not P15)) (?v_149 (not P45)) (?v_40 (not ?v_18)) (?v_39 (not ?v_57)) (?v_14 (not P9)) (?v_50 (not P20)) (?v_96 (not ?v_75)) (?v_34 (not P28)) (?v_147 (not P10)) (?v_116 (not P18)) (?v_20 (not P49)) (?v_221 (not P7)) (?v_176 (not P46)) (?v_45 (not P27)) (?v_164 (not P29)) (?v_53 (not P42)) (?v_56 (not ?v_194)) (?v_60 (not ?v_152)) (?v_142 (not ?v_33)) (?v_236 (not ?v_123)) (?v_47 (not P41)) (?v_192 (not P43)) (?v_76 (not ?v_92)) (?v_78 (not P16)) (?v_54 (not P11)) (?v_218 (not ?v_73)) (?v_66 (not P4)) (?v_263 (not ?v_125)) (?v_235 (not P1)) (?v_223 (not P44)) (?v_150 (not P0)) (?v_178 (not ?v_104)) (?v_83 (not P22)) (?v_93 (not P5)) (?v_85 (not P12)) (?v_231 (not ?v_161)) (?v_139 (not ?v_120)) (?v_157 (not ?v_97)) (?v_90 (not P36)) (?v_237 (not ?v_145)) (?v_264 (not ?v_24)) (?v_226 (not P3)) (?v_135 (not ?v_79)) (?v_158 (not P17))) (let ((?v_201 (or ?v_158 ?v_105)) (?v_124 (not ?v_195)) (?v_242 (not ?v_82)) (?v_102 (not ?v_101)) (?v_111 (not P35)) (?v_222 (not ?v_117)) (?v_175 (not ?v_144)) (?v_127 (not ?v_207)) (?v_209 (not P48)) (?v_114 (not ?v_51)) (?v_167 (not ?v_42)) (?v_148 (not ?v_100)) (?v_188 (not ?v_113)) (?v_128 (not P34)) (?v_230 (not P8)) (?v_153 (not ?v_109)) (?v_146 (not ?v_172)) (?v_215 (not ?v_112)) (?v_181 (not P38)) (?v_189 (not ?v_130)) (?v_216 (not ?v_0)) (?v_163 (not ?v_61)) (?v_173 (not P33)) (?v_249 (not ?v_137)) (?v_196 (not P30)) (?v_160 (not P26)) (?v_174 (not ?v_59)) (?v_193 (not P23)) (?v_162 (not P24)) (?v_170 (not ?v_190)) (?v_244 (not P19)) (?v_247 (not ?v_169)) (?v_219 (not P2)) (?v_186 (not ?v_168)) (?v_251 (not P37)) (?v_204 (not ?v_32)) (?v_233 (not ?v_129)) (?v_229 (not ?v_49)) (?v_187 (not ?v_165)) (?v_234 (not P25)) (?v_224 (not ?v_74)) (?v_259 (not ?v_180)) (?v_258 (not ?v_210)) (?v_239 (not ?v_225)) (?v_232 (not P21)) (?v_255 (not P40)) (?v_261 (not P13)) (?v_240 (not P6)) (?v_256 (not ?v_105)) (?v_4 (<= (- (- x37 x31) (* 4 x27)) 14))) (let ((?v_38 (not ?v_4)) (?v_30 (distinct (+ (* 26 x9) (* 8 x43) (* 12 x30)) 0))) (let ((?v_171 (not ?v_30)) (?v_119 (<= (+ (* 7 x23) (* 10 x6) (* 3 x13)) 16))) (let ((?v_27 (not ?v_119)) (?v_87 (<= (- ?v_31 (* 18 x45)) 13))) (let ((?v_166 (not ?v_87)) (?v_70 (<= (+ (* 19 x3) (* 7 x14) x7) 24))) (let ((?v_65 (not ?v_70)) (?v_91 (distinct (+ ?v_81 (* 18 x49)) 13))) (let ((?v_140 (not ?v_91)) (?v_227 (= (+ (* 11 x36) (* 18 x24) (* 8 x6)) 14))) (let ((?v_154 (not ?v_227)) (?v_260 (or ?v_171 ?v_109)) (?v_252 (<= (+ (* 9 x6) (* 6 x28) (* 11 x12)) 15))) (let ((?v_253 (not ?v_252)) (?v_182 (distinct (- (+ (* 4 x42) (* 23 x33)) (* 2 x8)) (- 13))) (?v_37 (< (+ (* (- 17) x11) (* 4 x13) (* 9 x23)) 7))) (let ((?v_211 (not ?v_37)) (?v_6 (<= (+ (- (* (- 8) x43) (* 22 x27)) ?v_131) 17))) (let ((?v_3 (not ?v_6)) (?v_121 (distinct (- (- (* (- 18) x9) (* 22 x9)) (* 2 x25)) (- 22)))) (let ((?v_9 (not ?v_121)) (?v_11 (< (+ (* (- 15) x19) (* 12 x31) (* 16 x45)) 5))) (let ((?v_155 (not ?v_11)) (?v_8 (<= (+ (* (- 7) x38) (* 8 x24) (* 14 x42)) 0))) (let ((?v_107 (not ?v_8)) (?v_12 (<= (- (- (* 10 x27) (* 17 x37)) (* 8 x39)) (- 17))) (?v_122 (< (+ (* 6 x4) (* 14 x35) (* 2 x19)) (- 6))) (?v_132 (<= (+ (- (* (- 5) x15) (* 9 x18)) (* 26 x23)) (- 1))) (?v_77 (<= (- (- (* 18 x21) (* 13 x14)) (* 14 x20)) (- 3)))) (let ((?v_15 (not ?v_77)) (?v_19 (not ?v_12)) (?v_213 (< (- ?v_31 (* 3 x46)) (- 14)))) (let ((?v_118 (not ?v_213)) (?v_67 (<= (+ (- (* (- 13) x14) (* 8 x4)) ?v_13) 23)) (?v_29 (<= (- (- (* (- 9) x9) (* 22 x2)) (* 5 x2)) 27))) (let ((?v_250 (not ?v_29)) (?v_199 (distinct (+ (* (- 24) x38) ?v_16 (* 19 x40)) (- 11)))) (let ((?v_84 (not ?v_199)) (?v_25 (<= (+ (- (* 6 x27) (* 2 x10)) (* 24 x13)) (- 12))) (?v_21 (<= (- (+ (* (- 16) x35) (* 2 x20)) (* 3 x25)) (- 24))) (?v_95 (<= (+ (- (* (- 19) x21) x6) x33) (- 25))) (?v_206 (< (- (- (* (- 25) x36) (* 8 x15)) (* 13 x10)) 0))) (let ((?v_55 (not ?v_206)) (?v_110 (not ?v_21)) (?v_106 (< (- (- (* (- 9) x11) (* 11 x19)) (* 9 x31)) 4)) (?v_64 (< (+ (* (- 1) x30) (* 3 x15) (* 13 x4)) 7)) (?v_220 (<= (+ (* (- 1) x37) (* 13 x44) (* 15 x24)) (- 22)))) (let ((?v_138 (not ?v_220)) (?v_103 (<= (- (- (* (- 14) x35) (* 3 x24)) (* 21 x43)) (- 27))) (?v_191 (= (- (* 11 x39) (* 26 x31)) (- 25)))) (let ((?v_89 (not ?v_191)) (?v_80 (< (- (- (* 26 x32) (* 25 x9)) (* 13 x25)) (- 21))) (?v_68 (distinct (- (- (* (- 8) x18) (* 27 x6)) 0) 25))) (let ((?v_72 (not ?v_68)) (?v_94 (= (- (+ (* 23 x41) (* 2 x16)) (* 24 x33)) (- 17))) (?v_88 (< (+ (* (- 4) x11) (* 18 x19) (* 23 x13)) (- 17))) (?v_86 (<= (+ (* 20 x36) (* 16 x49) (* 11 x4)) (- 16))) (?v_203 (distinct (+ (- (* (- 15) x15) ?v_69) ?v_69) (- 17)))) (let ((?v_126 (not ?v_203)) (?v_143 (not ?v_80)) (?v_151 (< (- (- (* (- 2) x41) (* 17 x5)) x16) 25)) (?v_214 (not ?v_67)) (?v_99 (not ?v_94)) (?v_115 (< (- (- (* 11 x38) (* 11 x40)) 0) (- 27))) (?v_185 (< (- (+ (* 24 x16) (* 7 x25)) x7) (- 15))) (?v_183 (not ?v_88)) (?v_156 (not ?v_122)) (?v_134 (< (- (- x0 (* 20 x2)) ?v_131) (- 8))) (?v_205 (< (- (- (* (- 20) x25) (* 7 x33)) (* 12 x2)) 12))) (let ((?v_254 (not ?v_205)) (?v_217 (not ?v_151)) (?v_238 (not ?v_95)) (?v_179 (<= (+ (- (* 12 x34) (* 18 x30)) (* 23 x29)) (- 11)))) (let ((?v_184 (not ?v_179)) (?v_246 (not ?v_25)) (?v_265 (not ?v_185)) (?v_200 (not ?v_64)) (?v_197 (not ?v_115)) (?v_262 (not ?v_132)) (?v_248 (<= (- (+ (* (- 13) x44) (* 23 x18)) (* 23 x8)) 7))) (let ((?v_241 (not ?v_248)) (?v_257 (not ?v_182)) (?v_243 (not ?v_103)) (?v_245 (not ?v_106))) (and (and (and (and (and (and (and (and (and (and (and (and (and (and (and (and (and (and (and (and (and (and (and (and (and (and (and (and (and (and (and (and (and (and (and (and (and (and (and (and (and (and (and (and (and (and (and (and (and (and (and (and (and (and (and (and (and (and (and (and (and (and (and (and (and (and (and (and (and (and (and (and (and (and (and (and (and (and (and (and (and (and (and (and (and (and (and (and (and (and (and (and (and (and (and (and (and (and (and (and (and (and (and (and (and (and (and (and (and (and (and (and (and (and (and (and (and (and (and (and (and (and (and (and (and (and (and (and (and (and (and (and (and (and (and (and (and (and (and (and (and (and (and (and (and (and (and (and (and (and (and (and (and (and (and (and (and (and (and (and (and (and (and (and (and (and (and (and (and (and (and (and (and (and (and (and (and (and (and (and (and (and (and (and (and (and (and (and (and (and (and (and (and (and (and (and (and (and (and (and (and (and (and (and (and (and (and (and (and (and (and (and (and (and (and (and (and (and (and (and (and (and (and (and (and (and (and (and (and (and (and (and (and (and (and (and (and (and (and (and (and (and (and (and (and (and (and (and (and (and (and (and (and (and (and (and (and (and (and (and (and (and (and (and (and (and (and (and (and (and (and (and (and (and (and (and (and (and (and (and (and (and (and (and (and (and (and (and (and (and (and (and (and (and (and (and (and (and (and (and (and (and (and (and (and (and (and (and (and (and (and (and (and (and (and (and (and (and (and (and (and (and (and (and (and (and (and (and (and (and (and (and (and (and (and (and (and (and (and (and (and (and (and (and (and (and (and (and (and (and (and (and (and (and (and (and (and (and (and (and (and (and (and (and (and (and (and (and (and (and (and (and (and (and (and (and (and (and (and (and (and (and (and (and (and (and (and (and (and (and (and (and (and (and (and (and (and (and (and (and (and (and (and (and (and (and (and (and (and (and (and (and (and (and (and (and (and (and (and (and (and (and (and (and (and (and (and (and (and (and (and (and (and (and (and (and (and (and (and (and (and (and (and (and (and (and (and (and (and (and (and (and (and (and (and (and (and (and (and (and (and (and (and (and (and (and (and (and (and (and (and (and (and (and (and (and (and (and (and (and (and (and (and (and (and (and (and (and (and (and (and (and (and (and (and (and (and (and (and (and (and (and (and (and (and (and (and (and (and (and (and (and (and (and (and (and (and (and (and (and (and (and (and (and (and (and (and (and (and (and (and (and (and (and (and (and (and (and (and (and (and (and (and (and (and (and (and (and (and (and (and (and (and (and (and (and (and (and (and (and (and (and (and (and (and (and (and (and (and (and (and (and (and (and (and (and (and (and (and (and (and (and (and (and (and (and (and (and (and (and (and (and (and (and (and (and (and (and (and (or (or ?v_46 ?v_182) ?v_211) (or (or P41 ?v_1) ?v_3)) (or (or ?v_38 ?v_171) ?v_9)) (or (or ?v_141 ?v_0) P8)) (or (or P31 ?v_136) P11)) (or ?v_208 ?v_228)) (or (or ?v_35 ?v_7) P18)) (or (or P20 ?v_155) ?v_107)) (or (or ?v_44 ?v_24) ?v_82)) (or (or ?v_5 ?v_17) ?v_63)) (or (or ?v_2 ?v_3) P45)) (or (or ?v_61 P14) P11)) (or (or ?v_4 ?v_71) P20)) (or (or ?v_5 ?v_6) ?v_12)) (or (or ?v_122 ?v_33) P48)) (or (or ?v_7 ?v_26) ?v_132)) (or (or ?v_165 ?v_41) P35)) (or (or ?v_8 ?v_51) ?v_9)) (or (or ?v_149 P48) P40)) (or (or ?v_32 ?v_40) P19)) (or (or ?v_100 P1) ?v_39)) (or (or ?v_14 ?v_15) ?v_11)) (or (or ?v_50 ?v_19) ?v_118)) (or (or ?v_67 ?v_250) ?v_14)) (or (or ?v_15 ?v_27) ?v_84)) (or (or ?v_96 P20) ?v_17)) (or (or ?v_34 ?v_147) P22)) (or (or ?v_25 ?v_18) ?v_21)) (or (or ?v_116 ?v_95) P9)) (or (or P6 ?v_20) ?v_55)) (or (or P39 ?v_19) P6)) (or (or ?v_221 ?v_20) ?v_110)) (or (or ?v_42 ?v_210) ?v_176)) (or (or ?v_21 ?v_45) ?v_23)) (or (or ?v_24 ?v_25) ?v_164)) (or (or ?v_79 ?v_26) P43)) (or (or P44 ?v_106) ?v_27)) (or (or ?v_53 ?v_56) P45)) (or (or ?v_29 P37) ?v_64)) (or (or ?v_138 ?v_30) ?v_103)) (or (or ?v_60 ?v_166) P47)) (or (or ?v_32 ?v_142) ?v_89)) (or (or ?v_236 P36) ?v_34)) (or (or P4 ?v_47) ?v_35)) (or (or ?v_192 ?v_36) ?v_37)) (or (or ?v_38 ?v_39) P9)) (or (or ?v_40 ?v_76) P25)) (or (or ?v_78 P49) ?v_129)) (or (or ?v_54 P34) ?v_80)) (or (or ?v_37 ?v_168) ?v_218)) (or (or ?v_41 ?v_42) P41)) (or (or ?v_49 ?v_66) ?v_263)) (or (or P25 ?v_44) ?v_45)) (or (or ?v_235 ?v_46) ?v_72)) (or (or ?v_8 ?v_223) ?v_2)) (or (or ?v_17 P3) ?v_47)) (or (or ?v_150 ?v_178) ?v_83)) (or (or ?v_93 ?v_49) ?v_65)) (or (or P20 P36) ?v_18)) (or (or ?v_50 ?v_51) ?v_40)) (or (or ?v_19 ?v_85) ?v_231)) (or (or ?v_25 ?v_139) P8)) (or (or ?v_53 ?v_54) ?v_157)) (or (or ?v_55 ?v_56) ?v_57)) (or (or ?v_59 ?v_74) ?v_90)) (or (or P14 ?v_237) ?v_264)) (or (or ?v_59 ?v_11) ?v_94)) (or (or ?v_60 ?v_61) ?v_112)) (or (or P24 ?v_88) ?v_63)) (or (or ?v_64 ?v_65) ?v_66)) (or (or ?v_67 ?v_68) ?v_86)) (or (or ?v_126 ?v_70) ?v_71)) (or (or ?v_226 ?v_15) ?v_72)) (or (or ?v_73 ?v_74) ?v_75)) (or (or ?v_76 ?v_77) ?v_78)) (or (or ?v_135 P5) ?v_39)) (or ?v_201 ?v_143)) (or (or ?v_74 ?v_151) P0)) (or (or ?v_91 ?v_45) P10)) (or (or ?v_124 ?v_242) ?v_102)) (or (or P10 ?v_83) ?v_111)) (or (or ?v_40 ?v_214) ?v_84)) (or (or ?v_85 (not ?v_86)) ?v_87)) (or (or P6 ?v_88) ?v_41)) (or (or ?v_222 ?v_89) ?v_175)) (or (or P1 P32) ?v_127)) (or (or P15 ?v_90) P27)) (or (or ?v_140 ?v_92) P7)) (or (or ?v_209 ?v_114) ?v_167)) (or (or ?v_24 ?v_56) ?v_93)) (or (or ?v_38 ?v_99) ?v_95)) (or (or ?v_59 ?v_109) ?v_6)) (or (or ?v_44 ?v_3) ?v_115)) (or (or ?v_29 ?v_2) ?v_80)) (or (or P28 ?v_80) ?v_96)) (or (or ?v_97 ?v_98) ?v_99)) (or (or P48 ?v_89) ?v_54)) (or (or ?v_148 ?v_101) P14)) (or (or ?v_79 ?v_102) ?v_103)) (or (or P42 ?v_188) ?v_128)) (or (or ?v_47 ?v_79) ?v_104)) (or (or ?v_18 ?v_137) ?v_230)) (or (or P23 ?v_99) ?v_105)) (or (or ?v_50 ?v_106) ?v_185)) (or (or ?v_6 ?v_107) ?v_130)) (or (or P37 P41) ?v_153)) (or (or P17 ?v_90) ?v_6)) (or (or P49 ?v_110) ?v_97)) (or (or ?v_146 ?v_61) ?v_111)) (or (or ?v_107 ?v_79) ?v_215)) (or (or ?v_113 P8) ?v_26)) (or (or ?v_11 ?v_78) ?v_114)) (or (or ?v_115 ?v_116) ?v_19)) (or (or P29 ?v_117) ?v_118)) (or (or ?v_119 ?v_34) ?v_120)) (or (or ?v_56 ?v_121) ?v_12)) (or (or ?v_183 ?v_156) ?v_123)) (or (or ?v_26 ?v_41) P13)) (or (or ?v_124 ?v_125) ?v_181)) (or (or ?v_105 ?v_23) P27)) (or (or P49 ?v_118) ?v_63)) (or (or ?v_154 ?v_126) ?v_107)) (or (or ?v_122 ?v_125) ?v_84)) (or (or ?v_11 P13) P43)) (or (or ?v_127 ?v_128) ?v_129)) (or (or ?v_189 ?v_134) ?v_67)) (or (or ?v_66 ?v_132) ?v_73)) (or (or P40 ?v_216) ?v_76)) (or (or P40 P11) P23)) (or (or ?v_129 P8) ?v_133)) (or (or ?v_163 ?v_133) P25)) (or (or ?v_254 ?v_50) ?v_118)) (or (or ?v_11 ?v_18) P8)) (or (or ?v_0 (not ?v_134)) ?v_135)) (or (or ?v_134 ?v_57) ?v_173)) (or (or ?v_86 ?v_136) ?v_84)) (or (or ?v_116 P47) ?v_180)) (or (or P41 ?v_109) P30)) (or (or ?v_65 ?v_67) ?v_249)) (or (or P44 ?v_86) ?v_138)) (or (or P30 P16) ?v_139)) (or (or ?v_140 ?v_72) ?v_141)) (or (or P39 ?v_66) ?v_196)) (or (or ?v_142 ?v_25) ?v_140)) (or (or ?v_45 ?v_19) ?v_160)) (or (or P47 ?v_143) ?v_174)) (or (or ?v_144 ?v_143) ?v_193)) (or (or ?v_119 ?v_44) ?v_86)) (or (or ?v_162 ?v_145) ?v_146)) (or (or ?v_147 ?v_0) ?v_76)) (or (or P15 ?v_19) P41)) (or (or ?v_128 ?v_117) ?v_148)) (or (or P4 P46) P35)) (or (or ?v_76 ?v_149) P4)) (or (or ?v_150 P8) P28)) (or (or ?v_39 ?v_66) P6)) (or (or ?v_53 ?v_217) ?v_170)) (or (or ?v_133 ?v_7) ?v_100)) (or (or ?v_29 ?v_105) ?v_152)) (or (or P15 ?v_153) ?v_106)) (or (or ?v_154 ?v_155) ?v_156)) (or (or P18 ?v_114) ?v_42)) (or (or P13 ?v_17) ?v_157)) (or (or P29 ?v_78) ?v_158)) (or (or P3 ?v_103) P10)) (or (or P35 P46) P16)) (or (or ?v_244 ?v_104) ?v_100)) (or (or ?v_152 ?v_159) ?v_138)) (or (or ?v_160 ?v_161) ?v_162)) (or (or ?v_153 ?v_0) ?v_163)) (or (or ?v_164 ?v_238) P16)) (or (or ?v_37 ?v_54) ?v_30)) (or (or ?v_70 ?v_47) ?v_19)) (or (or P8 P44) ?v_165)) (or (or ?v_247 ?v_36) ?v_147)) (or (or ?v_79 P29) ?v_29)) (or (or ?v_219 ?v_111) ?v_76)) (or (or ?v_3 ?v_143) ?v_27)) (or (or ?v_166 ?v_6) ?v_77)) (or (or ?v_66 ?v_98) ?v_44)) (or (or ?v_167 ?v_186) ?v_161)) (or (or ?v_120 ?v_169) ?v_127)) (or (or ?v_104 ?v_8) ?v_165)) (or (or ?v_251 P40) P35)) (or (or ?v_27 ?v_143) P36)) (or (or ?v_170 P21) ?v_109)) (or ?v_260 P40)) (or (or P7 ?v_204) ?v_115)) (or (or ?v_37 ?v_125) P33)) (or (or ?v_35 ?v_72) ?v_172)) (or (or ?v_155 ?v_198) ?v_146)) (or (or ?v_41 ?v_93) ?v_132)) (or (or P11 ?v_179) ?v_173)) (or (or ?v_12 ?v_140) ?v_174)) (or (or P39 ?v_175) ?v_173)) (or (or ?v_49 ?v_149) ?v_173)) (or (or ?v_176 ?v_102) ?v_120)) (or (or ?v_177 P35) ?v_178)) (or (or P5 ?v_165) P20)) (or (or ?v_135 ?v_141) ?v_77)) (or (or ?v_184 P39) P6)) (or (or ?v_98 ?v_49) ?v_9)) (or (or ?v_178 ?v_21) ?v_180)) (or (or P0 ?v_178) P23)) (or (or P45 ?v_118) ?v_65)) (or (or ?v_65 ?v_181) ?v_176)) (or (or P24 ?v_182) ?v_183)) (or (or ?v_21 ?v_14) ?v_8)) (or (or ?v_233 ?v_7) ?v_120)) (or (or P49 P14) ?v_77)) (or (or P14 ?v_246) ?v_151)) (or (or ?v_184 ?v_44) ?v_65)) (or (or ?v_112 ?v_139) ?v_185)) (or (or P8 ?v_92) ?v_142)) (or (or ?v_186 ?v_15) ?v_229)) (or (or ?v_15 ?v_187) ?v_170)) (or (or ?v_5 ?v_77) ?v_139)) (or (or ?v_167 ?v_139) ?v_265)) (or (or ?v_75 ?v_61) ?v_234)) (or (or ?v_96 ?v_187) ?v_37)) (or (or ?v_200 ?v_188) ?v_78)) (or (or ?v_17 ?v_162) ?v_197)) (or (or ?v_92 ?v_89) ?v_181)) (or (or ?v_42 P36) P43)) (or (or P21 ?v_189) ?v_102)) (or (or ?v_190 ?v_20) ?v_189)) (or (or ?v_85 ?v_159) ?v_76)) (or (or ?v_107 ?v_191) P15)) (or (or ?v_161 ?v_130) ?v_32)) (or (or ?v_176 ?v_262) ?v_191)) (or (or ?v_192 P21) ?v_152)) (or (or ?v_89 ?v_96) P29)) (or (or ?v_181 ?v_60) ?v_5)) (or (or P26 ?v_193) ?v_194)) (or (or P24 ?v_0) ?v_104)) (or (or ?v_23 ?v_195) ?v_94)) (or (or P45 P37) ?v_224)) (or (or P21 ?v_196) P4)) (or (or P15 ?v_137) ?v_197)) (or (or ?v_198 ?v_68) P10)) (or (or P46 ?v_83) P11)) (or (or ?v_147 ?v_7) ?v_109)) (or (or ?v_17 ?v_199) P31)) (or (or ?v_83 ?v_200) P13)) (or (or ?v_55 ?v_176) ?v_96)) (or (or ?v_9 ?v_103) ?v_40)) (or ?v_201 ?v_190)) (or (or P11 ?v_225) ?v_123)) (or (or ?v_170 ?v_74) ?v_203)) (or (or ?v_189 ?v_96) ?v_141)) (or (or ?v_162 P42) ?v_241)) (or (or ?v_87 ?v_204) ?v_147)) (or (or ?v_15 ?v_128) ?v_184)) (or (or P7 ?v_205) ?v_110)) (or (or ?v_15 ?v_206) ?v_109)) (or (or ?v_21 ?v_207) ?v_160)) (or (or ?v_115 ?v_95) ?v_4)) (or (or ?v_142 ?v_157) ?v_182)) (or ?v_208 ?v_209)) (or (or ?v_1 ?v_162) ?v_70)) (or (or ?v_80 ?v_3) ?v_61)) (or (or ?v_77 ?v_193) ?v_55)) (or (or ?v_134 ?v_180) ?v_23)) (or (or ?v_150 P48) P46)) (or (or ?v_138 ?v_118) ?v_259)) (or (or ?v_210 ?v_188) ?v_34)) (or (or ?v_53 ?v_117) ?v_211)) (or (or ?v_106 ?v_207) ?v_70)) (or (or ?v_143 ?v_135) P49)) (or (or ?v_118 ?v_40) ?v_212)) (or (or ?v_257 P5) ?v_25)) (or (or P49 P9) ?v_68)) (or (or ?v_213 ?v_258) P10)) (or (or ?v_19 ?v_214) ?v_26)) (or (or ?v_123 ?v_139) ?v_26)) (or (or ?v_121 ?v_25) ?v_181)) (or (or ?v_152 ?v_157) ?v_38)) (or (or ?v_158 ?v_180) P18)) (or (or ?v_91 P45) ?v_39)) (or (or P14 P1) ?v_174)) (or (or ?v_136 ?v_53) ?v_172)) (or (or P1 P17) ?v_37)) (or (or ?v_150 ?v_6) ?v_215)) (or (or ?v_190 ?v_83) ?v_172)) (or (or ?v_243 ?v_66) ?v_68)) (or (or ?v_24 ?v_161) P3)) (or (or P27 ?v_124) ?v_216)) (or (or ?v_134 P22) ?v_21)) (or (or ?v_84 ?v_109) ?v_210)) (or (or ?v_114 ?v_210) ?v_23)) (or (or ?v_210 ?v_217) P38)) (or (or ?v_50 ?v_78) ?v_218)) (or (or ?v_32 P34) ?v_139)) (or (or ?v_164 ?v_200) ?v_168)) (or (or P7 ?v_125) ?v_219)) (or (or ?v_109 ?v_64) P1)) (or (or ?v_106 ?v_220) P30)) (or (or ?v_170 P46) ?v_49)) (or (or ?v_147 ?v_130) ?v_212)) (or (or ?v_181 ?v_7) ?v_221)) (or (or P37 ?v_252) ?v_211)) (or (or ?v_210 ?v_211) ?v_101)) (or (or ?v_50 ?v_176) ?v_183)) (or (or ?v_3 ?v_30) ?v_47)) (or (or ?v_222 ?v_128) ?v_45)) (or (or ?v_160 ?v_179) ?v_4)) (or (or ?v_223 ?v_75) P21)) (or (or ?v_128 ?v_60) ?v_158)) (or (or ?v_36 ?v_61) ?v_122)) (or (or ?v_67 ?v_224) ?v_47)) (or (or ?v_169 ?v_118) ?v_66)) (or (or P45 ?v_51) P14)) (or (or ?v_192 ?v_64) P20)) (or (or ?v_174 ?v_140) ?v_87)) (or (or ?v_87 ?v_158) P40)) (or (or ?v_213 ?v_218) ?v_100)) (or (or ?v_163 ?v_170) ?v_107)) (or (or P7 ?v_59) P32)) (or (or ?v_45 ?v_147) ?v_239)) (or (or P44 ?v_139) ?v_53)) (or (or ?v_96 ?v_123) P23)) (or (or ?v_226 ?v_87) ?v_65)) (or (or P39 ?v_232) ?v_157)) (or (or ?v_39 ?v_134) ?v_147)) (or (or P16 ?v_216) ?v_127)) (or (or P36 ?v_205) ?v_155)) (or (or ?v_122 ?v_255) ?v_5)) (or (or ?v_227 ?v_213) ?v_218)) (or (or ?v_156 ?v_42) ?v_261)) (or (or ?v_185 ?v_245) ?v_100)) (or (or ?v_200 ?v_109) ?v_228)) (or (or ?v_217 ?v_174) ?v_199)) (or (or ?v_80 ?v_15) ?v_229)) (or (or ?v_124 ?v_230) ?v_176)) (or (or ?v_125 ?v_231) ?v_82)) (or (or ?v_232 ?v_11) ?v_240)) (or (or P6 ?v_3) ?v_161)) (or (or ?v_18 ?v_12) ?v_130)) (or (or ?v_151 P40) ?v_226)) (or (or ?v_37 ?v_37) ?v_71)) (or (or ?v_210 ?v_233) ?v_152)) (or (or ?v_77 ?v_172) ?v_76)) (or (or ?v_230 P3) ?v_207)) (or (or ?v_34 ?v_100) P16)) (or (or ?v_15 ?v_228) ?v_45)) (or (or ?v_178 ?v_49) ?v_1)) (or (or ?v_234 ?v_123) ?v_235)) (or (or ?v_72 ?v_47) ?v_126)) (or (or ?v_136 ?v_41) ?v_51)) (or (or ?v_236 ?v_220) ?v_71)) (or (or ?v_47 ?v_24) ?v_27)) (or (or ?v_174 ?v_103) ?v_72)) (or (or ?v_177 ?v_101) ?v_214)) (or (or ?v_97 ?v_37) ?v_237)) (or (or ?v_93 P31) ?v_238)) (or (or ?v_234 ?v_168) ?v_99)) (or (or ?v_221 ?v_239) ?v_240)) (or (or P27 ?v_178) ?v_98)) (or (or ?v_233 ?v_152) ?v_112)) (or (or ?v_224 ?v_241) P28)) (or (or ?v_39 ?v_32) ?v_180)) (or (or ?v_241 P34) ?v_180)) (or (or ?v_163 ?v_64) P27)) (or (or ?v_229 ?v_192) P45)) (or (or ?v_65 ?v_190) ?v_19)) (or (or ?v_242 ?v_1) ?v_146)) (or (or ?v_120 ?v_194) ?v_175)) (or (or ?v_214 ?v_241) ?v_30)) (or (or ?v_1 ?v_34) ?v_153)) (or (or ?v_154 ?v_164) ?v_65)) (or (or ?v_175 ?v_243) ?v_179)) (or (or ?v_151 ?v_207) ?v_203)) (or (or ?v_35 ?v_163) ?v_184)) (or (or ?v_159 ?v_151) ?v_137)) (or (or ?v_172 ?v_82) ?v_125)) (or (or ?v_194 ?v_234) ?v_195)) (or (or ?v_244 ?v_21) ?v_146)) (or (or ?v_94 P12) ?v_235)) (or (or ?v_75 ?v_142) ?v_20)) (or (or ?v_205 ?v_106) ?v_187)) (or (or ?v_95 ?v_226) ?v_245)) (or (or ?v_245 ?v_246) ?v_176)) (or (or ?v_247 ?v_83) P12)) (or (or P8 P41) ?v_246)) (or (or ?v_84 ?v_204) ?v_4)) (or (or P6 ?v_177) ?v_111)) (or (or ?v_65 ?v_156) ?v_36)) (or (or ?v_23 ?v_233) ?v_6)) (or (or ?v_178 ?v_211) ?v_241)) (or (or ?v_96 ?v_198) ?v_11)) (or (or ?v_213 P3) ?v_84)) (or (or ?v_248 ?v_158) ?v_152)) (or (or ?v_168 ?v_75) ?v_213)) (or (or P37 ?v_190) ?v_99)) (or (or ?v_11 ?v_98) ?v_34)) (or (or ?v_101 ?v_228) ?v_242)) (or (or ?v_137 ?v_91) ?v_7)) (or (or ?v_173 P48) P16)) (or (or ?v_94 ?v_49) ?v_198)) (or (or ?v_72 ?v_239) ?v_222)) (or (or ?v_152 ?v_4) ?v_88)) (or (or ?v_80 ?v_47) ?v_231)) (or (or ?v_24 ?v_243) ?v_240)) (or (or ?v_213 ?v_192) ?v_216)) (or (or ?v_106 ?v_53) P40)) (or (or ?v_92 ?v_53) P21)) (or (or ?v_37 ?v_55) ?v_197)) (or (or ?v_9 P36) ?v_94)) (or (or ?v_197 ?v_71) ?v_220)) (or (or ?v_161 P16) ?v_212)) (or (or ?v_193 P31) ?v_196)) (or (or ?v_249 ?v_245) ?v_117)) (or (or ?v_125 ?v_133) P46)) (or (or ?v_4 ?v_11) ?v_193)) (or (or ?v_29 ?v_242) ?v_136)) (or (or P12 ?v_12) ?v_106)) (or (or ?v_247 ?v_138) ?v_5)) (or (or ?v_195 ?v_50) ?v_80)) (or (or ?v_166 ?v_161) P38)) (or (or P41 P14) P18)) (or (or ?v_159 P33) ?v_92)) (or (or P10 ?v_46) P42)) (or (or ?v_164 ?v_232) ?v_158)) (or (or ?v_11 ?v_118) ?v_143)) (or (or ?v_173 ?v_4) ?v_210)) (or (or P27 ?v_88) P17)) (or (or ?v_250 ?v_158) P7)) (or (or ?v_228 ?v_218) ?v_85)) (or (or ?v_159 ?v_216) ?v_83)) (or (or ?v_76 P39) ?v_180)) (or (or P26 P11) ?v_220)) (or (or ?v_77 ?v_164) ?v_55)) (or (or ?v_251 ?v_221) P3)) (or (or ?v_110 ?v_191) P14)) (or (or ?v_30 ?v_167) ?v_38)) (or (or ?v_191 ?v_71) ?v_253)) (or (or ?v_193 ?v_249) ?v_194)) (or (or ?v_120 ?v_141) ?v_116)) (or (or ?v_8 ?v_186) ?v_79)) (or (or ?v_112 ?v_67) ?v_156)) (or (or ?v_79 ?v_147) P26)) (or (or ?v_244 ?v_214) ?v_253)) (or (or ?v_166 ?v_151) ?v_15)) (or (or ?v_225 ?v_142) ?v_15)) (or (or ?v_256 ?v_82) ?v_223)) (or (or ?v_196 ?v_250) P16)) (or (or ?v_61 ?v_130) ?v_172)) (or (or P43 P24) ?v_167)) (or (or ?v_95 ?v_93) ?v_234)) (or (or P7 ?v_152) ?v_254)) (or (or ?v_173 P41) ?v_26)) (or (or ?v_14 ?v_182) P10)) (or (or ?v_187 ?v_111) ?v_118)) (or (or ?v_163 ?v_234) ?v_197)) (or (or ?v_213 ?v_92) ?v_244)) (or (or ?v_203 P44) ?v_251)) (or (or P35 ?v_50) ?v_80)) (or (or ?v_169 ?v_91) ?v_255)) (or (or ?v_245 P21) ?v_19)) (or (or ?v_120 ?v_42) ?v_179)) (or (or ?v_92 ?v_0) P43)) (or (or ?v_235 ?v_247) ?v_212)) (or (or P18 ?v_64) P23)) (or (or ?v_255 P15) ?v_11)) (or (or ?v_256 P2) ?v_257)) (or (or ?v_23 ?v_4) ?v_77)) (or (or ?v_140 ?v_84) ?v_35)) (or (or ?v_25 P1) ?v_80)) (or (or ?v_221 ?v_227) ?v_15)) (or (or ?v_93 ?v_102) ?v_160)) (or (or P18 ?v_258) ?v_119)) (or (or ?v_199 ?v_235) ?v_109)) (or (or ?v_232 P5) ?v_215)) (or (or P26 ?v_114) ?v_199)) (or (or ?v_74 ?v_38) ?v_259)) (or (or ?v_216 P49) ?v_144)) (or (or P23 P41) ?v_172)) (or (or P19 ?v_216) ?v_121)) (or (or P18 ?v_232) ?v_249)) (or (or ?v_140 P2) ?v_42)) (or (or ?v_205 ?v_117) P1)) (or ?v_260 P0)) (or (or ?v_61 P20) ?v_257)) (or (or P16 ?v_87) P4)) (or (or ?v_117 ?v_216) ?v_130)) (or (or ?v_217 ?v_231) ?v_170)) (or (or ?v_37 P49) ?v_162)) (or (or P13 ?v_234) ?v_116)) (or (or ?v_50 ?v_67) ?v_248)) (or (or P0 ?v_177) ?v_83)) (or (or P35 ?v_147) ?v_2)) (or (or ?v_57 ?v_88) ?v_247)) (or (or ?v_122 ?v_192) ?v_250)) (or (or ?v_218 ?v_112) ?v_150)) (or (or ?v_70 ?v_170) ?v_231)) (or (or ?v_186 ?v_218) P9)) (or (or ?v_93 ?v_103) ?v_45)) (or (or ?v_199 ?v_86) ?v_127)) (or (or P6 ?v_76) ?v_107)) (or (or ?v_95 P2) ?v_176)) (or (or ?v_74 ?v_54) P5)) (or (or P12 P36) ?v_39)) (or (or ?v_192 ?v_53) ?v_197)) (or (or ?v_240 ?v_60) ?v_185)) (or (or ?v_32 P41) ?v_261)) (or (or ?v_6 ?v_178) ?v_107)) (or (or ?v_165 ?v_64) ?v_32)) (or (or ?v_226 ?v_107) ?v_209)) (or (or ?v_235 P48) ?v_206)) (or (or ?v_138 P35) ?v_237)) (or (or ?v_95 P9) ?v_75)) (or (or ?v_135 ?v_229) ?v_225)) (or (or ?v_228 ?v_107) ?v_236)) (or (or ?v_196 ?v_8) ?v_198)) (or (or ?v_117 ?v_94) ?v_191)) (or (or ?v_231 ?v_211) ?v_3)) (or (or P34 ?v_249) ?v_179)) (or (or ?v_257 ?v_1) P12)) (or (or ?v_21 ?v_141) ?v_167)) (or (or P29 P45) ?v_2)) (or (or ?v_160 ?v_159) ?v_46)) (or (or P16 ?v_70) ?v_198)) (or (or ?v_14 ?v_199) ?v_103)) (or (or ?v_53 ?v_173) ?v_127)) (or (or ?v_72 ?v_30) ?v_97)) (or (or ?v_119 ?v_203) ?v_179)) (or (or ?v_143 P13) P31)) (or (or ?v_173 ?v_262) P13)) (or (or ?v_185 ?v_146) ?v_127)) (or (or ?v_114 ?v_155) ?v_228)) (or (or ?v_178 P11) ?v_219)) (or (or ?v_149 ?v_56) ?v_183)) (or (or ?v_238 ?v_19) ?v_180)) (or (or ?v_137 ?v_122) ?v_128)) (or (or ?v_153 P32) P30)) (or (or ?v_14 ?v_133) ?v_65)) (or (or ?v_117 ?v_226) ?v_50)) (or (or ?v_161 ?v_75) ?v_17)) (or (or P48 P31) ?v_77)) (or (or P10 P32) ?v_239)) (or (or ?v_237 ?v_8) ?v_121)) (or (or ?v_236 ?v_160) P6)) (or (or ?v_241 ?v_33) ?v_243)) (or (or ?v_60 ?v_90) P6)) (or (or ?v_232 ?v_219) ?v_112)) (or (or ?v_263 ?v_102) ?v_54)) (or (or ?v_57 ?v_191) ?v_181)) (or (or ?v_123 ?v_71) ?v_255)) (or (or ?v_61 ?v_33) ?v_4)) (or (or ?v_209 P34) ?v_145)) (or (or ?v_194 ?v_66) ?v_105)) (or (or ?v_97 ?v_187) ?v_21)) (or (or P30 ?v_110) ?v_167)) (or (or ?v_160 ?v_258) ?v_259)) (or (or ?v_18 P45) ?v_61)) (or (or ?v_86 ?v_198) ?v_45)) (or (or ?v_88 ?v_253) ?v_46)) (or (or ?v_0 ?v_247) ?v_229)) (or (or ?v_122 P7) ?v_185)) (or (or ?v_2 P4) ?v_130)) (or (or ?v_143 ?v_30) P33)) (or (or ?v_11 ?v_64) ?v_51)) (or (or ?v_191 ?v_136) ?v_178)) (or (or ?v_54 P24) P9)) (or (or ?v_247 ?v_90) ?v_65)) (or (or ?v_101 ?v_94) ?v_183)) (or (or ?v_71 ?v_45) ?v_17)) (or (or ?v_25 ?v_228) ?v_125)) (or (or ?v_177 ?v_88) ?v_41)) (or (or ?v_111 ?v_12) (not ?v_198))) (or (or ?v_159 ?v_223) ?v_248)) (or (or ?v_90 ?v_166) ?v_227)) (or (or P36 ?v_91) ?v_158)) (or (or ?v_98 ?v_64) ?v_217)) (or (or ?v_160 ?v_83) ?v_103)) (or (or ?v_149 ?v_240) ?v_251)) (or (or ?v_106 ?v_144) ?v_215)) (or (or ?v_194 ?v_151) ?v_142)) (or (or P20 ?v_78) ?v_105)) (or (or ?v_250 ?v_172) ?v_215)) (or (or ?v_237 ?v_261) ?v_215)) (or (or P5 ?v_111) ?v_171)) (or (or ?v_227 P6) ?v_210)) (or (or ?v_152 ?v_221) ?v_50)) (or (or ?v_187 ?v_32) ?v_203)) (or (or ?v_114 ?v_180) ?v_187)) (or (or P41 ?v_139) ?v_64)) (or (or ?v_232 ?v_132) ?v_248)) (or (or ?v_134 P35) P33)) (or (or ?v_264 ?v_264) ?v_182)) (or (or ?v_238 ?v_187) ?v_160)) (or (or ?v_228 ?v_265) ?v_39)) (or (or ?v_171 ?v_177) ?v_159)) (or (or P36 P37) ?v_9)) (or (or ?v_88 P25) ?v_241)) (or (or ?v_165 ?v_120) ?v_246)) (or (or ?v_187 P48) ?v_219)) (or (or ?v_243 ?v_102) ?v_5)) (or (or ?v_78 ?v_149) ?v_178)) (or (or P25 ?v_129) ?v_25))))))))))))))))))))))))))))))))))))))))))
(check-sat)
(exit)
